0 0 0 0
0 1 0 0
0 2 0 0
0 3 0 0
0 4 2 1
0 5 0 1
0 6 0 4
0 7 0 4
0 8 0 7
0 9 0 8
0 10 2 6
0 11 0 11
0 12 1 2
0 13 0 7
0 14 0 15
0 15 0 14
0 16 0 14
0 17 0 10
0 18 2 10
0 19 1 18
0 20 0 2
0 21 0 11
0 22 1 11
0 23 0 20
0 24 0 13
0 25 0 14
0 26 0 19
0 27 1 14
0 28 0 21
0 29 0 21
0 30 0 19
0 31 0 22
